(set-logic HORN)
(declare-fun inv ((_ BitVec 64) (_ BitVec 64) (_ BitVec 64) (_ BitVec 64) (_ BitVec 64) ) Bool)
(assert (forall ((in (_ BitVec 64)) (inlen (_ BitVec 64)) (bufferlen (_ BitVec 64)) (buf (_ BitVec 64)) (buflim (_ BitVec 64))) 
       (=> ( and ( bvugt bufferlen (_ bv1 64) ) ( bvugt inlen (_ bv0 64) ) ( bvult bufferlen inlen ) ( = buf (_ bv0 64) ) ( = in (_ bv0 64) ) ( = buflim ( bvsub bufferlen (_ bv2 64) ) ) ) (inv in inlen bufferlen buf buflim))))
(assert (forall ((in (_ BitVec 64)) (inlen (_ BitVec 64)) (bufferlen (_ BitVec 64)) (buf (_ BitVec 64)) (buflim (_ BitVec 64)) (in! (_ BitVec 64)) (inlen! (_ BitVec 64)) (bufferlen! (_ BitVec 64)) (buf! (_ BitVec 64)) (buflim! (_ BitVec 64))) 
       (=> (and (inv in inlen bufferlen buf buflim) ( and ( not ( = buf buflim ) ) ( = buf! ( bvadd buf (_ bv1 64) ) ) ( = in! ( bvadd in (_ bv1 64) ) ) ( = inlen! inlen ) ( = bufferlen! bufferlen ) ( = buflim! buflim ) )) (inv in! inlen! bufferlen! buf! buflim!))))
(assert (forall ((in (_ BitVec 64)) (inlen (_ BitVec 64)) (bufferlen (_ BitVec 64)) (buf (_ BitVec 64)) (buflim (_ BitVec 64))) 
       (=> (inv in inlen bufferlen buf buflim) ( or ( = buf buflim ) ( and ( bvule (_ bv0 64) buf ) ( bvult buf bufferlen ) ) ))))
(check-sat)
